==> MAXTIME              = 3600
==> OUTPUTLOG            = 1
==> COVERCUTS            = 2
FICO Xpress v8.5.9, solve started 23:35:26, Jun 8, 2019
Maximizing MILP Seating model
Original problem has:
       230 rows          300 cols         7440 elements       300 globals
Presolved problem has:
       103 rows          204 cols         2431 elements       198 globals
LP relaxation tightened
Will try to keep branch and bound tree memory usage below 7.2GB
 *** Heuristic solution found:    22.000000      Time: 0 ***
Starting concurrent solve with dual

 Concurrent-Solve,   0s
            Dual        
    objective   dual inf
 D  102.00000   .0000000
------- optimal --------
Concurrent statistics:
      Dual: 34 simplex iterations, 0.00s
Optimal solution found
 
   Its         Obj Value      S   Ninf  Nneg   Sum Dual Inf  Time
    34        102.000000      D      0     0        .000000     0
Dual solved problem
  34 simplex iterations in 0s

Final objective                         : 1.020000000000000e+02
  Max primal violation      (abs / rel) : 1.110e-16 / 9.869e-17
  Max dual violation        (abs / rel) :       0.0 /       0.0
  Max complementarity viol. (abs / rel) :       0.0 /       0.0
All values within tolerances

Starting root cutting & heuristics
 
 Its Type    BestSoln    BestBound   Sols    Add    Del     Gap     GInf   Time
   1  K     22.000000   102.000000      1     99      0   78.43%      29      0
   2  K     22.000000   102.000000      1    111    181   78.43%      43      0
   3  G     22.000000   102.000000      1     41      1   78.43%      48      0
   4  G     22.000000   102.000000      1     29     84   78.43%      42      0
Heuristic search started
Heuristic search stopped
M           25.000000   102.000000      2                 75.49%       0      0
M           30.000000   102.000000      3                 70.59%       0      0
M           35.000000   102.000000      4                 65.69%       0      0
M           41.000000   102.000000      5                 59.80%       0      0
M           46.000000   102.000000      6                 54.90%       0      0
M           51.000000   102.000000      7                 50.00%       0      0
M           54.000000   102.000000      8                 47.06%       0      0
M           59.000000   102.000000      9                 42.16%       0      0
 
Cuts in the matrix         : 14
Cut elements in the matrix : 616
 
Starting tree search.
Deterministic mode with up to 4 running threads and up to 8 tasks.
 
    Node     BestSoln    BestBound   Sols Active  Depth     Gap     GInf   Time
       1    59.000000   102.000000      9      2      1   42.16%      31      0
       2    59.000000   102.000000      9      2      2   42.16%      46      0
       3    59.000000   102.000000      9      2      3   42.16%      41      0
       4    59.000000   102.000000      9      2      2   42.16%      37      0
       5    59.000000   102.000000      9      2      4   42.16%      25      0
       6    59.000000   102.000000      9      5      3   42.16%      29      0
       7    59.000000   102.000000      9      5      4   42.16%      29      0
       8    59.000000   102.000000      9      6      4   42.16%      45      0
       9    59.000000   102.000000      9      6      5   42.16%      33      0
      10    59.000000   102.000000      9      6      3   42.16%      38      0
      21    59.000000   102.000000      9     15      8   42.16%      52      0
      41    59.000000   102.000000      9     15     20   42.16%       8      0
      56    59.000000   102.000000      9     24     20   42.16%      41      0
      66    59.000000   102.000000      9     33     15   42.16%      44      0
      93    59.000000   102.000000      9     33     21   42.16%      36      0
     106    59.000000   102.000000      9     33     17   42.16%      40      0
     214    59.000000   102.000000      9     48     13   42.16%      18      1
     332    59.000000   102.000000      9     68     28   42.16%      33      1
     442    59.000000   101.718545      9    120     21   42.00%      40      1
B&B tree size: 2.6MB total
 
    Node     BestSoln    BestBound   Sols Active  Depth     Gap     GInf   Time
     553    59.000000   101.718545      9    135     21   42.00%      30      1
     653    59.000000   101.718545      9    135     16   42.00%      21      1
     758    59.000000   101.718545      9    169     18   42.00%      35      1
     873    59.000000   101.718545      9    215     28   42.00%      26      1
     978    59.000000   101.718545      9    255     18   42.00%      18      1
    1084    59.000000   101.718545      9    306     14   42.00%      29      1
    1192    59.000000   101.718545      9    354     18   42.00%      39      1
    1293    59.000000   101.718545      9    354     16   42.00%      39      1
    1399    59.000000   101.718545      9    354     32   42.00%      22      1
    1499    59.000000   101.718545      9    412      1   42.00%       1      1
    1611    59.000000   101.718545      9    412     21   42.00%      20      2
    1722    59.000000   101.718545      9    412     14   42.00%      35      2
g   1749    60.000000   101.718545     10    412     26   41.01%       0      2
    1826    60.000000   101.718545     10    498     20   41.01%      36      2
    1927    60.000000   101.718545     10    498     16   41.01%      48      2
    2030    60.000000   101.718545     10    542     15   41.01%      27      2
    2131    60.000000   101.718545     10    605     21   41.01%      33      2
    2241    60.000000   100.828753     10    703     24   40.49%      12      2
    2343    60.000000   100.828753     10    703     18   40.49%      42      2
    2448    60.000000   100.828753     10    703     16   40.49%      37      2
B&B tree size: 9.4MB total
 
    Node     BestSoln    BestBound   Sols Active  Depth     Gap     GInf   Time
    2569    60.000000   100.828753     10    774     15   40.49%      43      2
    2670    60.000000   100.828753     10    774     16   40.49%      36      2
    2788    60.000000   100.828753     10    774     22   40.49%      38      2
    2901    60.000000   100.828753     10    774     15   40.49%      45      2
    3010    60.000000   100.828753     10    886     21   40.49%      25      3
    3127    60.000000   100.828753     10    886     22   40.49%      17      3
    3232    60.000000   100.828753     10    886     16   40.49%      36      3
    3342    60.000000   100.828753     10    886     13   40.49%      34      3
    3450    60.000000   100.828753     10    886     18   40.49%      35      3
    3562    60.000000   100.828753     10    886     19   40.49%      39      3
    3679    60.000000   100.828753     10    886     25   40.49%      23      3
    3796    60.000000   100.828753     10    886     21   40.49%      36      3
    3908    60.000000    99.222222     10    937     14   39.53%      40      3
    4008    60.000000    99.222222     10    988     20   39.53%      36      3
    4116    60.000000    99.222222     10   1122     21   39.53%      33      3
    4220    60.000000    99.222222     10   1122     17   39.53%      64      3
    4350    60.000000    99.222222     10   1122     24   39.53%      34      3
    4452    60.000000    99.222222     10   1295     20   39.53%      33      3
    4558    60.000000    96.809803     10   1421     16   38.02%      38      3
    4659    60.000000    96.809803     10   1421     17   38.02%      17      3
B&B tree size: 15MB total
 
    Node     BestSoln    BestBound   Sols Active  Depth     Gap     GInf   Time
    4760    60.000000    96.809803     10   1421     16   38.02%      25      4
    4877    60.000000    96.809803     10   1421     23   38.02%      19      4
    4998    60.000000    96.809803     10   1421     23   38.02%      30      4
    5103    60.000000    96.809803     10   1421     18   38.02%      27      4
    5225    60.000000    96.809803     10   1560     22   38.02%      21      4
    5342    60.000000    96.809803     10   1560     23   38.02%      34      4
    5450    60.000000    96.809803     10   1593     18   38.02%      51      4
    5564    60.000000    96.809803     10   1593     19   38.02%      34      4
    5672    60.000000    96.809803     10   1593     18   38.02%      26      4
    5775    60.000000    96.809803     10   1593     21   38.02%      43      4
    5877    60.000000    91.135284     10   1633     20   34.16%      30      4
    5989    60.000000    91.135284     10   1633     16   34.16%      15      4
    6091    60.000000    91.135284     10   1680     23   34.16%      38      4
    6193    60.000000    91.135284     10   1691     24   34.16%      21      4
    6305    60.000000    91.135284     10   1691     21   34.16%      27      4
    6419    60.000000    91.135284     10   1705     20   34.16%      19      4
    6527    60.000000    91.135284     10   1766     25   34.16%      23      4
    6641    60.000000    91.135284     10   1831     27   34.16%      24      5
    6745    60.000000    91.135284     10   1831     16   34.16%      25      5
    6854    60.000000    91.135284     10   1831     25   34.16%      23      5
B&B tree size: 19MB total
 
    Node     BestSoln    BestBound   Sols Active  Depth     Gap     GInf   Time
    6956    60.000000    91.135284     10   1961     23   34.16%      30      5
    7059    60.000000    91.135284     10   1961     22   34.16%      21      5
    7174    60.000000    91.135284     10   1961     22   34.16%      21      5
    7280    60.000000    91.135284     10   1961     29   34.16%      24      5
    7396    60.000000    91.135284     10   1961     27   34.16%      19      5
    7504    60.000000    86.137069     10   2027     21   30.34%      39      5
    7618    60.000000    86.137069     10   2027     24   30.34%      30      5
    7728    60.000000    86.137069     10   2027     20   30.34%      22      5
    7836    60.000000    86.137069     10   2044     20   30.34%      14      5
    7947    60.000000    86.137069     10   2044     20   30.34%      29      5
    8058    60.000000    86.137069     10   2067     18   30.34%       9      5
    8168    60.000000    86.137069     10   2099     20   30.34%      38      5
    8282    60.000000    86.137069     10   2099     26   30.34%      28      5
    8400    60.000000    86.137069     10   2115     25   30.34%      30      5
    8501    60.000000    85.116767     10   2181     24   29.51%      11      6
    8621    60.000000    85.116767     10   2230     15   29.51%      29      6
    8739    60.000000    85.116767     10   2230     22   29.51%       8      6
    8855    60.000000    84.892262     10   2299     24   29.32%      33      6
    8955    60.000000    84.892262     10   2299     17   29.32%      31      6
    9060    60.000000    84.892262     10   2299     21   29.32%      32      6
B&B tree size: 22MB total
 
    Node     BestSoln    BestBound   Sols Active  Depth     Gap     GInf   Time
    9170    60.000000    84.892262     10   2299     20   29.32%      34      6
    9273    60.000000    84.573482     10   2345     20   29.06%      24      6
    9388    60.000000    84.307534     10   2419     23   28.83%      35      6
    9511    60.000000    84.152428     10   2452     26   28.70%      20      6
    9619    60.000000    84.015680     10   2482     17   28.58%      37      6
    9738    60.000000    83.778474     10   2520     25   28.38%      34      6
    9864    60.000000    83.674917     10   2543     22   28.29%      34      6
    9973    60.000000    83.674917     10   2543     23   28.29%      31      6
   10084    60.000000    83.674917     10   2543     17   28.29%      36      7
   11087    60.000000    82.334306     10   2632     15   27.13%      26      7
   12107    60.000000    82.000000     10   2677     25   26.83%      35      8
   13107    60.000000    82.000000     10   2750     17   26.83%      34      8
   14114    60.000000    82.000000     10   2912     23   26.83%      32      9
   15119    60.000000    82.000000     10   2961     22   26.83%      20      9
   16130    60.000000    81.757101     10   3101     23   26.61%      27     10
   17133    60.000000    81.757101     10   3212     20   26.61%      40     10
   18133    60.000000    79.778661     10   3256     15   24.79%      29     11
   19157    60.000000    79.778661     10   3265     21   24.79%      20     11
   20163    60.000000    77.727947     10   3356     19   22.81%      26     11
   21163    60.000000    76.751277     10   3381     22   21.83%      35     12
B&B tree size: 32MB total
 
    Node     BestSoln    BestBound   Sols Active  Depth     Gap     GInf   Time
   22169    60.000000    76.266494     10   3355     23   21.33%      37     12
   23175    60.000000    75.774234     10   3332     16   20.82%      25     13
   24185    60.000000    75.474086     10   3296     16   20.50%      29     13
   25188    60.000000    75.026021     10   3285     24   20.03%      34     14
   26191    60.000000    75.000000     10   3338     17   20.00%      39     14
   27195    60.000000    75.000000     10   3343     27   20.00%      29     14
   28195    60.000000    74.000000     10   3318     20   18.92%      37     15
   29223    60.000000    73.646244     10   3265     25   18.53%      27     15
   30228    60.000000    73.071637     10   3196     21   17.89%      12     16
   31230    60.000000    73.001603     10   3170     20   17.81%      28     16
   32235    60.000000    73.000000     10   3208     27   17.81%      31     16
   33249    60.000000    73.000000     10   3114     28   17.81%      29     17
   34260    60.000000    73.000000     10   3062     18   17.81%      55     17
   35262    60.000000    71.738552     10   2940     21   16.36%      35     18
   36269    60.000000    71.111280     10   2839     24   15.63%      21     18
   37277    60.000000    70.592075     10   2684     21   15.00%      35     18
   38288    60.000000    70.001075     10   2539     25   14.29%      18     19
   39288    60.000000    70.000000     10   2436     21   14.29%      14     19
   40290    60.000000    69.009636     10   2249     23   13.06%      35     20
   41290    60.000000    68.649379     10   2057     20   12.60%      25     20
B&B tree size: 28MB total
 
    Node     BestSoln    BestBound   Sols Active  Depth     Gap     GInf   Time
   42298    60.000000    68.000000     10   1895     31   11.76%      29     20
   43301    60.000000    67.630885     10   1668     21   11.28%      25     21
   44301    60.000000    67.000000     10   1362     25   10.45%      17     21
   45303    60.000000    66.000000     10    928     18    9.09%      26     22
   46303    60.000000    63.000000     10    368     25    4.76%       8     22
 *** Search completed ***     Time:    22 Nodes:      47115
Number of integer feasible solutions found is 10
Best integer solution found is    60.000000
Best bound is    60.000000
Uncrunching matrix
